44077
1 1 1 1 1 1 1 1 1 1 1 1 1 1 1 1 1 1 0 1 1 1 1 1 1 1 1 1 1 1
19 20 21 15 11 26 8 3 6 15 9 4 0 14 9 11 7 16 16 5 13 16 4 5 17 8 21 22 3 21 11 5 7 3 2 16 7 16 5 10 1 25 26 1 3 22 12 5 22 19 17 14 24 6 17 4 5 5 14 15 17 11 22 25 4 24 5 14 24 10 19 9 2 8 20 15 16 17 2 14 5 25 11 12 20 5 15 2 6 15 9 29 0 8 29 17 20 8 11 3 6 17 19 11 27 7 1 11 13 9 25 1 9 1 7 17 19 8 11 2 0 10 10 13 28 15 21 20 28 2 23 12 12 27 16 26 0 23 14 1 6 17 19 17 6 19 11 8 11 9 8 11 1 22 4 24 0 24 12 17 23 8 28 17 11 0 2 5 29 23 17 19 24 20 23 23 6 14 27 4 25 4 28 22 28 15 29 4 28 20 16 8 26 20 8 10 4 1 27 8